c Graph colouring
c
c edges;1,2;1,4;1,5;2,3;2,6;3,4;3,7;4,8;5,6;5,8;6,7;7,8
c n = number of vertices = 8
c m = number of edges = 12
c k = number of colours = 2
c vertex i=0,...,n-1 has colour c=0,...,k-1 if variable i*k+c+1 True
c
c We have nk=16 variables and n+(k^2-k)n/2+mk=40 clauses.
c
p cnf 16 40
1 2 0
3 4 0
5 6 0
7 8 0
9 10 0
11 12 0
13 14 0
15 16 0
-16 -15 0
-10 -9 0
-6 -5 0
-4 -3 0
-12 -11 0
-8 -7 0
-14 -13 0
-2 -1 0
-15 -13 0
-3 -1 0
-16 -14 0
-9 -1 0
-13 -11 0
-8 -2 0
-12 -10 0
-11 -9 0
-6 -4 0
-8 -6 0
-14 -6 0
-7 -5 0
-15 -7 0
-16 -8 0
-5 -3 0
-7 -1 0
-4 -2 0
-13 -5 0
-11 -3 0
-16 -10 0
-12 -4 0
-15 -9 0
-14 -12 0
-10 -2 0
